% Número total de personas
n = 150;

% Número de opiniones posibles
m = 3;

% Distribución inicial de personas por opinión
p = [130, 9, 11];

% Valores de las opiniones
v = [0.122, 0.395, 0.999];

% Costos extras al mover a opiniones vacías
ce = [17.487, 17.207, 10.544];

% Matriz de costos de mover de una opinión a otra
C = array2d(1..3, 1..3,
  [
    0.000,    3.065,    5.890,
    0.540,    0.000,    5.371,
    0.988,    0.210,    0.000
  ]);

% Costo total máximo permitido
C_max = 36.290;

% Número máximo de movimientos permitidos
M_max = 17;
